
Gurobi 11.0.3 (linux64) logging started Sun Nov 24 19:14:57 2024

Set parameter LogFile to value "/home/yihong/Coding/OR_SUC/SUC_results_bigM100000_thread4/case24_ieee_rts_theta0.1_epsilon0.05_gurobi_seed1390000_num_gen100_N_WDR100_load_scaling_factor1_proposed_T12quadra_cost.txt"
Set parameter TimeLimit to value 3600
Gurobi Optimizer version 11.0.3 build v11.0.3rc0 (linux64 - "Ubuntu 20.04.6 LTS")

CPU model: AMD EPYC 7532 32-Core Processor, instruction set [SSE2|AVX|AVX2]
Thread count: 64 physical cores, 128 logical processors, using up to 4 threads

Optimize a model with 28530 rows, 14981 columns and 657050 nonzeros
Model fingerprint: 0xf9c0ca7d
Model has 1200 quadratic constraints
Variable types: 13781 continuous, 1200 integer (1200 binary)
Coefficient statistics:
  Matrix range     [3e-04, 3e+03]
  QMatrix range    [2e-03, 8e-03]
  QLMatrix range   [4e-01, 6e+01]
  Objective range  [1e+00, 1e+00]
  Bounds range     [1e+00, 1e+00]
  RHS range        [1e+00, 9e+03]
Presolve removed 23293 rows and 6379 columns
Presolve time: 0.20s
Presolved: 5237 rows, 8602 columns, 29506 nonzeros
Presolved model has 1200 quadratic constraint(s)
Variable types: 7402 continuous, 1200 integer (1200 binary)

Root relaxation: objective 1.695868e+04, 4169 iterations, 0.08 seconds (0.11 work units)

    Nodes    |    Current Node    |     Objective Bounds      |     Work
 Expl Unexpl |  Obj  Depth IntInf | Incumbent    BestBd   Gap | It/Node Time

     0     0 16958.6765    0    -          - 16958.6765      -     -    0s
     0     0 203268.108    0  324          - 203268.108      -     -    0s
     0     0 359769.692    0  166          - 359769.692      -     -    0s
     0     0 359773.499    0  140          - 359773.499      -     -    0s
     0     0 359852.089    0  104          - 359852.089      -     -    0s
     0     0 359855.640    0  104          - 359855.640      -     -    0s
     0     0 359855.640    0  104          - 359855.640      -     -    0s
     0     0 359855.875    0  104          - 359855.875      -     -    1s
     0     2 359855.875    0  104          - 359855.875      -     -    1s
H  135   133                    360065.80513 359867.462  0.06%   9.5    2s
*  135   133              51    360065.80513 359867.462  0.06%   9.6    2s

Cutting planes:
  Gomory: 110
  Lift-and-project: 7
  Implied bound: 305
  MIR: 47
  Flow cover: 146
  RLT: 205

Explored 155 nodes (11579 simplex iterations) in 2.58 seconds (3.01 work units)
Thread count was 4 (of 128 available processors)

Solution count 2: 360066 360066 

Optimal solution found (tolerance 1.00e-03)
Warning: max constraint violation (1.4349e-07) exceeds tolerance
Best objective 3.600658051297e+05, best bound 3.598674618240e+05, gap 0.0551%
